p cnf 552 1831 
-1  2 0 
-3  2 0 
 1  3 -2 0 
 1 -4 0 
 3 -4 0 
-1 -3  4 0 
 2 -4 0 
-5  6 0 
-7  6 0 
 5  7 -6 0 
 5 -8 0 
 7 -8 0 
-5 -7  8 0 
 6 -8 0 
-2  9 0 
-6  9 0 
 2  6 -9 0 
 2 -10 0 
 6 -10 0 
-2 -6  10 0 
 9 -10 0 
-4  11 0 
-8  11 0 
 4  8 -11 0 
 4 -12 0 
 8 -12 0 
-4 -8  12 0 
 11 -12 0 
-11  13 0 
-10  13 0 
 11  10 -13 0 
 11 -14 0 
 10 -14 0 
-11 -10  14 0 
 13 -14 0 
-15  16 0 
-17  16 0 
 15  17 -16 0 
 15 -18 0 
 17 -18 0 
-15 -17  18 0 
 16 -18 0 
-19  20 0 
-21  20 0 
 19  21 -20 0 
 19 -22 0 
 21 -22 0 
-19 -21  22 0 
 20 -22 0 
-16  23 0 
-20  23 0 
 16  20 -23 0 
 16 -24 0 
 20 -24 0 
-16 -20  24 0 
 23 -24 0 
-18  25 0 
-22  25 0 
 18  22 -25 0 
 18 -26 0 
 22 -26 0 
-18 -22  26 0 
 25 -26 0 
-25  27 0 
-24  27 0 
 25  24 -27 0 
 25 -28 0 
 24 -28 0 
-25 -24  28 0 
 27 -28 0 
-9  29 0 
-23  29 0 
 9  23 -29 0 
 9 -30 0 
 23 -30 0 
-9 -23  30 0 
 29 -30 0 
-14  31 0 
-28  31 0 
 14  28 -31 0 
 14 -32 0 
 28 -32 0 
-14 -28  32 0 
 31 -32 0 
-31  33 0 
-30  33 0 
 31  30 -33 0 
 31 -34 0 
 30 -34 0 
-31 -30  34 0 
 33 -34 0 
-13  35 0 
-27  35 0 
 13  27 -35 0 
 13 -36 0 
 27 -36 0 
-13 -27  36 0 
 35 -36 0 
-12  37 0 
-26  37 0 
 12  26 -37 0 
 12 -38 0 
 26 -38 0 
-12 -26  38 0 
 37 -38 0 
-37  39 0 
-36  39 0 
 37  36 -39 0 
 37 -40 0 
 36 -40 0 
-37 -36  40 0 
 39 -40 0 
-35  41 0 
-33  41 0 
 35  33 -41 0 
 35 -42 0 
 33 -42 0 
-35 -33  42 0 
 41 -42 0 
-39  43 0 
-34  43 0 
 39  34 -43 0 
 39 -44 0 
 34 -44 0 
-39 -34  44 0 
 43 -44 0 
-40  45 0 
-32  45 0 
 40  32 -45 0 
 40 -46 0 
 32 -46 0 
-40 -32  46 0 
 45 -46 0 
-47  48 0 
-49  48 0 
 47  49 -48 0 
 47 -50 0 
 49 -50 0 
-47 -49  50 0 
 48 -50 0 
-51  52 0 
-53  52 0 
 51  53 -52 0 
 51 -54 0 
 53 -54 0 
-51 -53  54 0 
 52 -54 0 
-48  55 0 
-52  55 0 
 48  52 -55 0 
 48 -56 0 
 52 -56 0 
-48 -52  56 0 
 55 -56 0 
-50  57 0 
-54  57 0 
 50  54 -57 0 
 50 -58 0 
 54 -58 0 
-50 -54  58 0 
 57 -58 0 
-57  59 0 
-56  59 0 
 57  56 -59 0 
 57 -60 0 
 56 -60 0 
-57 -56  60 0 
 59 -60 0 
-61  62 0 
-63  62 0 
 61  63 -62 0 
 61 -64 0 
 63 -64 0 
-61 -63  64 0 
 62 -64 0 
-65  66 0 
-67  66 0 
 65  67 -66 0 
 65 -68 0 
 67 -68 0 
-65 -67  68 0 
 66 -68 0 
-62  69 0 
-66  69 0 
 62  66 -69 0 
 62 -70 0 
 66 -70 0 
-62 -66  70 0 
 69 -70 0 
-64  71 0 
-68  71 0 
 64  68 -71 0 
 64 -72 0 
 68 -72 0 
-64 -68  72 0 
 71 -72 0 
-71  73 0 
-70  73 0 
 71  70 -73 0 
 71 -74 0 
 70 -74 0 
-71 -70  74 0 
 73 -74 0 
-55  75 0 
-69  75 0 
 55  69 -75 0 
 55 -76 0 
 69 -76 0 
-55 -69  76 0 
 75 -76 0 
-60  77 0 
-74  77 0 
 60  74 -77 0 
 60 -78 0 
 74 -78 0 
-60 -74  78 0 
 77 -78 0 
-77  79 0 
-76  79 0 
 77  76 -79 0 
 77 -80 0 
 76 -80 0 
-77 -76  80 0 
 79 -80 0 
-59  81 0 
-73  81 0 
 59  73 -81 0 
 59 -82 0 
 73 -82 0 
-59 -73  82 0 
 81 -82 0 
-58  83 0 
-72  83 0 
 58  72 -83 0 
 58 -84 0 
 72 -84 0 
-58 -72  84 0 
 83 -84 0 
-83  85 0 
-82  85 0 
 83  82 -85 0 
 83 -86 0 
 82 -86 0 
-83 -82  86 0 
 85 -86 0 
-81  87 0 
-79  87 0 
 81  79 -87 0 
 81 -88 0 
 79 -88 0 
-81 -79  88 0 
 87 -88 0 
-85  89 0 
-80  89 0 
 85  80 -89 0 
 85 -90 0 
 80 -90 0 
-85 -80  90 0 
 89 -90 0 
-86  91 0 
-78  91 0 
 86  78 -91 0 
 86 -92 0 
 78 -92 0 
-86 -78  92 0 
 91 -92 0 
-29  93 0 
-75  93 0 
 29  75 -93 0 
 29 -94 0 
 75 -94 0 
-29 -75  94 0 
 93 -94 0 
-44  95 0 
-90  95 0 
 44  90 -95 0 
 44 -96 0 
 90 -96 0 
-44 -90  96 0 
 95 -96 0 
-95  97 0 
-94  97 0 
 95  94 -97 0 
 95 -98 0 
 94 -98 0 
-95 -94  98 0 
 97 -98 0 
-42  99 0 
-88  99 0 
 42  88 -99 0 
 42 -100 0 
 88 -100 0 
-42 -88  100 0 
 99 -100 0 
-46  101 0 
-92  101 0 
 46  92 -101 0 
-46 -92 0 
-101  102 0 
-100  102 0 
 101  100 -102 0 
 101 -103 0 
 100 -103 0 
-101 -100  103 0 
 102 -103 0 
-99  104 0 
-97  104 0 
 99  97 -104 0 
 99 -105 0 
 97 -105 0 
-99 -97  105 0 
 104 -105 0 
-102  106 0 
-98  106 0 
 102  98 -106 0 
 102 -107 0 
 98 -107 0 
-102 -98  107 0 
 106 -107 0 
-103  108 0 
-96  108 0 
 103  96 -108 0 
 103 -109 0 
 96 -109 0 
-103 -96  109 0 
 108 -109 0 
-41  110 0 
-87  110 0 
 41  87 -110 0 
 41 -111 0 
 87 -111 0 
-41 -87  111 0 
 110 -111 0 
-45  112 0 
-91  112 0 
 45  91 -112 0 
 45 -113 0 
 91 -113 0 
-45 -91  113 0 
 112 -113 0 
-112  114 0 
-111  114 0 
 112  111 -114 0 
 112 -115 0 
 111 -115 0 
-112 -111  115 0 
 114 -115 0 
-43  116 0 
-89  116 0 
 43  89 -116 0 
 43 -117 0 
 89 -117 0 
-43 -89  117 0 
 116 -117 0 
-38  118 0 
-84  118 0 
 38  84 -118 0 
-38 -84 0 
-118  119 0 
-117  119 0 
 118  117 -119 0 
 118 -120 0 
 117 -120 0 
-118 -117  120 0 
 119 -120 0 
-116  121 0 
-114  121 0 
 116  114 -121 0 
 116 -122 0 
 114 -122 0 
-116 -114  122 0 
 121 -122 0 
-119  123 0 
-115  123 0 
 119  115 -123 0 
 119 -124 0 
 115 -124 0 
-119 -115  124 0 
 123 -124 0 
-120  125 0 
-113  125 0 
 120  113 -125 0 
-120 -113 0 
-110  126 0 
-104  126 0 
 110  104 -126 0 
 110 -127 0 
 104 -127 0 
-110 -104  127 0 
 126 -127 0 
-121  128 0 
-105  128 0 
 121  105 -128 0 
 121 -129 0 
 105 -129 0 
-121 -105  129 0 
 128 -129 0 
-122  130 0 
-106  130 0 
 122  106 -130 0 
 122 -131 0 
 106 -131 0 
-122 -106  131 0 
 130 -131 0 
-123  132 0 
-107  132 0 
 123  107 -132 0 
 123 -133 0 
 107 -133 0 
-123 -107  133 0 
 132 -133 0 
-124  134 0 
-108  134 0 
 124  108 -134 0 
 124 -135 0 
 108 -135 0 
-124 -108  135 0 
 134 -135 0 
-125  136 0 
-109  136 0 
 125  109 -136 0 
-125 -109 0 
-137  138 0 
-139  138 0 
 137  139 -138 0 
 137 -140 0 
 139 -140 0 
-137 -139  140 0 
 138 -140 0 
-141  142 0 
-143  142 0 
 141  143 -142 0 
 141 -144 0 
 143 -144 0 
-141 -143  144 0 
 142 -144 0 
-138  145 0 
-142  145 0 
 138  142 -145 0 
 138 -146 0 
 142 -146 0 
-138 -142  146 0 
 145 -146 0 
-140  147 0 
-144  147 0 
 140  144 -147 0 
 140 -148 0 
 144 -148 0 
-140 -144  148 0 
 147 -148 0 
-147  149 0 
-146  149 0 
 147  146 -149 0 
 147 -150 0 
 146 -150 0 
-147 -146  150 0 
 149 -150 0 
-151  152 0 
-153  152 0 
 151  153 -152 0 
 151 -154 0 
 153 -154 0 
-151 -153  154 0 
 152 -154 0 
-155  156 0 
-157  156 0 
 155  157 -156 0 
 155 -158 0 
 157 -158 0 
-155 -157  158 0 
 156 -158 0 
-152  159 0 
-156  159 0 
 152  156 -159 0 
 152 -160 0 
 156 -160 0 
-152 -156  160 0 
 159 -160 0 
-154  161 0 
-158  161 0 
 154  158 -161 0 
 154 -162 0 
 158 -162 0 
-154 -158  162 0 
 161 -162 0 
-161  163 0 
-160  163 0 
 161  160 -163 0 
 161 -164 0 
 160 -164 0 
-161 -160  164 0 
 163 -164 0 
-145  165 0 
-159  165 0 
 145  159 -165 0 
 145 -166 0 
 159 -166 0 
-145 -159  166 0 
 165 -166 0 
-150  167 0 
-164  167 0 
 150  164 -167 0 
 150 -168 0 
 164 -168 0 
-150 -164  168 0 
 167 -168 0 
-167  169 0 
-166  169 0 
 167  166 -169 0 
 167 -170 0 
 166 -170 0 
-167 -166  170 0 
 169 -170 0 
-149  171 0 
-163  171 0 
 149  163 -171 0 
 149 -172 0 
 163 -172 0 
-149 -163  172 0 
 171 -172 0 
-148  173 0 
-162  173 0 
 148  162 -173 0 
 148 -174 0 
 162 -174 0 
-148 -162  174 0 
 173 -174 0 
-173  175 0 
-172  175 0 
 173  172 -175 0 
 173 -176 0 
 172 -176 0 
-173 -172  176 0 
 175 -176 0 
-171  177 0 
-169  177 0 
 171  169 -177 0 
 171 -178 0 
 169 -178 0 
-171 -169  178 0 
 177 -178 0 
-175  179 0 
-170  179 0 
 175  170 -179 0 
 175 -180 0 
 170 -180 0 
-175 -170  180 0 
 179 -180 0 
-176  181 0 
-168  181 0 
 176  168 -181 0 
 176 -182 0 
 168 -182 0 
-176 -168  182 0 
 181 -182 0 
-183  184 0 
-185  184 0 
 183  185 -184 0 
 183 -186 0 
 185 -186 0 
-183 -185  186 0 
 184 -186 0 
-187  188 0 
-189  188 0 
 187  189 -188 0 
 187 -190 0 
 189 -190 0 
-187 -189  190 0 
 188 -190 0 
-184  191 0 
-188  191 0 
 184  188 -191 0 
 184 -192 0 
 188 -192 0 
-184 -188  192 0 
 191 -192 0 
-186  193 0 
-190  193 0 
 186  190 -193 0 
 186 -194 0 
 190 -194 0 
-186 -190  194 0 
 193 -194 0 
-193  195 0 
-192  195 0 
 193  192 -195 0 
 193 -196 0 
 192 -196 0 
-193 -192  196 0 
 195 -196 0 
-197  198 0 
-199  198 0 
 197  199 -198 0 
 197 -200 0 
 199 -200 0 
-197 -199  200 0 
 198 -200 0 
-201  202 0 
-203  202 0 
 201  203 -202 0 
 201 -204 0 
 203 -204 0 
-201 -203  204 0 
 202 -204 0 
-198  205 0 
-202  205 0 
 198  202 -205 0 
 198 -206 0 
 202 -206 0 
-198 -202  206 0 
 205 -206 0 
-200  207 0 
-204  207 0 
 200  204 -207 0 
 200 -208 0 
 204 -208 0 
-200 -204  208 0 
 207 -208 0 
-207  209 0 
-206  209 0 
 207  206 -209 0 
 207 -210 0 
 206 -210 0 
-207 -206  210 0 
 209 -210 0 
-191  211 0 
-205  211 0 
 191  205 -211 0 
 191 -212 0 
 205 -212 0 
-191 -205  212 0 
 211 -212 0 
-196  213 0 
-210  213 0 
 196  210 -213 0 
 196 -214 0 
 210 -214 0 
-196 -210  214 0 
 213 -214 0 
-213  215 0 
-212  215 0 
 213  212 -215 0 
 213 -216 0 
 212 -216 0 
-213 -212  216 0 
 215 -216 0 
-195  217 0 
-209  217 0 
 195  209 -217 0 
 195 -218 0 
 209 -218 0 
-195 -209  218 0 
 217 -218 0 
-194  219 0 
-208  219 0 
 194  208 -219 0 
 194 -220 0 
 208 -220 0 
-194 -208  220 0 
 219 -220 0 
-219  221 0 
-218  221 0 
 219  218 -221 0 
 219 -222 0 
 218 -222 0 
-219 -218  222 0 
 221 -222 0 
-217  223 0 
-215  223 0 
 217  215 -223 0 
 217 -224 0 
 215 -224 0 
-217 -215  224 0 
 223 -224 0 
-221  225 0 
-216  225 0 
 221  216 -225 0 
 221 -226 0 
 216 -226 0 
-221 -216  226 0 
 225 -226 0 
-222  227 0 
-214  227 0 
 222  214 -227 0 
 222 -228 0 
 214 -228 0 
-222 -214  228 0 
 227 -228 0 
-165  229 0 
-211  229 0 
 165  211 -229 0 
 165 -230 0 
 211 -230 0 
-165 -211  230 0 
 229 -230 0 
-180  231 0 
-226  231 0 
 180  226 -231 0 
 180 -232 0 
 226 -232 0 
-180 -226  232 0 
 231 -232 0 
-231  233 0 
-230  233 0 
 231  230 -233 0 
 231 -234 0 
 230 -234 0 
-231 -230  234 0 
 233 -234 0 
-178  235 0 
-224  235 0 
 178  224 -235 0 
 178 -236 0 
 224 -236 0 
-178 -224  236 0 
 235 -236 0 
-182  237 0 
-228  237 0 
 182  228 -237 0 
-182 -228 0 
-237  238 0 
-236  238 0 
 237  236 -238 0 
 237 -239 0 
 236 -239 0 
-237 -236  239 0 
 238 -239 0 
-235  240 0 
-233  240 0 
 235  233 -240 0 
 235 -241 0 
 233 -241 0 
-235 -233  241 0 
 240 -241 0 
-238  242 0 
-234  242 0 
 238  234 -242 0 
 238 -243 0 
 234 -243 0 
-238 -234  243 0 
 242 -243 0 
-239  244 0 
-232  244 0 
 239  232 -244 0 
 239 -245 0 
 232 -245 0 
-239 -232  245 0 
 244 -245 0 
-177  246 0 
-223  246 0 
 177  223 -246 0 
 177 -247 0 
 223 -247 0 
-177 -223  247 0 
 246 -247 0 
-181  248 0 
-227  248 0 
 181  227 -248 0 
 181 -249 0 
 227 -249 0 
-181 -227  249 0 
 248 -249 0 
-248  250 0 
-247  250 0 
 248  247 -250 0 
 248 -251 0 
 247 -251 0 
-248 -247  251 0 
 250 -251 0 
-179  252 0 
-225  252 0 
 179  225 -252 0 
 179 -253 0 
 225 -253 0 
-179 -225  253 0 
 252 -253 0 
-174  254 0 
-220  254 0 
 174  220 -254 0 
-174 -220 0 
-254  255 0 
-253  255 0 
 254  253 -255 0 
 254 -256 0 
 253 -256 0 
-254 -253  256 0 
 255 -256 0 
-252  257 0 
-250  257 0 
 252  250 -257 0 
 252 -258 0 
 250 -258 0 
-252 -250  258 0 
 257 -258 0 
-255  259 0 
-251  259 0 
 255  251 -259 0 
 255 -260 0 
 251 -260 0 
-255 -251  260 0 
 259 -260 0 
-256  261 0 
-249  261 0 
 256  249 -261 0 
-256 -249 0 
-246  262 0 
-240  262 0 
 246  240 -262 0 
 246 -263 0 
 240 -263 0 
-246 -240  263 0 
 262 -263 0 
-257  264 0 
-241  264 0 
 257  241 -264 0 
 257 -265 0 
 241 -265 0 
-257 -241  265 0 
 264 -265 0 
-258  266 0 
-242  266 0 
 258  242 -266 0 
 258 -267 0 
 242 -267 0 
-258 -242  267 0 
 266 -267 0 
-259  268 0 
-243  268 0 
 259  243 -268 0 
 259 -269 0 
 243 -269 0 
-259 -243  269 0 
 268 -269 0 
-260  270 0 
-244  270 0 
 260  244 -270 0 
 260 -271 0 
 244 -271 0 
-260 -244  271 0 
 270 -271 0 
-261  272 0 
-245  272 0 
 261  245 -272 0 
-261 -245 0 
 93 -273 0 
 229 -273 0 
-93 -229  273 0 
 274 -273 0 
-133  275 0 
-269  275 0 
 133  269 -275 0 
-133 -269 0 
-275  276 0 
-273  276 0 
 275  273 -276 0 
-275 -273 0 
-129  277 0 
-265  277 0 
 129  265 -277 0 
-129 -265 0 
 277 -278 0 
 276 -278 0 
-277 -276  278 0 
 274 -278 0 
 127 -279 0 
 263 -279 0 
-127 -263  279 0 
 274 -279 0 
-135  280 0 
-271  280 0 
 135  271 -280 0 
-135 -271 0 
-280  281 0 
-279  281 0 
 280  279 -281 0 
-280 -279 0 
-131  282 0 
-267  282 0 
 131  267 -282 0 
-131 -267 0 
-282  283 0 
-281  283 0 
 282  281 -283 0 
-282 -281 0 
 283 -284 0 
 278 -284 0 
-283 -278  284 0 
 274 -284 0 
 126 -285 0 
 262 -285 0 
-126 -262  285 0 
 274 -285 0 
-134  286 0 
-270  286 0 
 134  270 -286 0 
-134 -270 0 
-286  287 0 
-285  287 0 
 286  285 -287 0 
-286 -285 0 
-130  288 0 
-266  288 0 
 130  266 -288 0 
-130 -266 0 
 288 -289 0 
 287 -289 0 
-288 -287  289 0 
 274 -289 0 
 128 -290 0 
 264 -290 0 
-128 -264  290 0 
 274 -290 0 
-136  291 0 
-272  291 0 
 136  272 -291 0 
-136 -272 0 
-291  292 0 
-290  292 0 
 291  290 -292 0 
-291 -290 0 
-132  293 0 
-268  293 0 
 132  268 -293 0 
-132 -268 0 
-293  294 0 
-292  294 0 
 293  292 -294 0 
-293 -292 0 
-294  295 0 
-289  295 0 
 294  289 -295 0 
-294 -289 0 
-295 -284 0 
-1  296 0 
-3  296 0 
 1  3 -296 0 
 1 -297 0 
 3 -297 0 
-1 -3  297 0 
 296 -297 0 
-5  298 0 
-7  298 0 
 5  7 -298 0 
 5 -299 0 
 7 -299 0 
-5 -7  299 0 
 298 -299 0 
-296  300 0 
-298  300 0 
 296  298 -300 0 
 296 -301 0 
 298 -301 0 
-296 -298  301 0 
 300 -301 0 
-297  302 0 
-299  302 0 
 297  299 -302 0 
 297 -303 0 
 299 -303 0 
-297 -299  303 0 
 302 -303 0 
-302  304 0 
-301  304 0 
 302  301 -304 0 
 302 -305 0 
 301 -305 0 
-302 -301  305 0 
 304 -305 0 
-15  306 0 
-17  306 0 
 15  17 -306 0 
 15 -307 0 
 17 -307 0 
-15 -17  307 0 
 306 -307 0 
-19  308 0 
-21  308 0 
 19  21 -308 0 
 19 -309 0 
 21 -309 0 
-19 -21  309 0 
 308 -309 0 
-306  310 0 
-308  310 0 
 306  308 -310 0 
 306 -311 0 
 308 -311 0 
-306 -308  311 0 
 310 -311 0 
-307  312 0 
-309  312 0 
 307  309 -312 0 
 307 -313 0 
 309 -313 0 
-307 -309  313 0 
 312 -313 0 
-312  314 0 
-311  314 0 
 312  311 -314 0 
 312 -315 0 
 311 -315 0 
-312 -311  315 0 
 314 -315 0 
-300  316 0 
-310  316 0 
 300  310 -316 0 
 300 -317 0 
 310 -317 0 
-300 -310  317 0 
 316 -317 0 
-305  318 0 
-315  318 0 
 305  315 -318 0 
 305 -319 0 
 315 -319 0 
-305 -315  319 0 
 318 -319 0 
-318  320 0 
-317  320 0 
 318  317 -320 0 
 318 -321 0 
 317 -321 0 
-318 -317  321 0 
 320 -321 0 
-304  322 0 
-314  322 0 
 304  314 -322 0 
 304 -323 0 
 314 -323 0 
-304 -314  323 0 
 322 -323 0 
-303  324 0 
-313  324 0 
 303  313 -324 0 
 303 -325 0 
 313 -325 0 
-303 -313  325 0 
 324 -325 0 
-324  326 0 
-323  326 0 
 324  323 -326 0 
 324 -327 0 
 323 -327 0 
-324 -323  327 0 
 326 -327 0 
-322  328 0 
-320  328 0 
 322  320 -328 0 
 322 -329 0 
 320 -329 0 
-322 -320  329 0 
 328 -329 0 
-326  330 0 
-321  330 0 
 326  321 -330 0 
 326 -331 0 
 321 -331 0 
-326 -321  331 0 
 330 -331 0 
-327  332 0 
-319  332 0 
 327  319 -332 0 
 327 -333 0 
 319 -333 0 
-327 -319  333 0 
 332 -333 0 
-47  334 0 
-49  334 0 
 47  49 -334 0 
 47 -335 0 
 49 -335 0 
-47 -49  335 0 
 334 -335 0 
-51  336 0 
-53  336 0 
 51  53 -336 0 
 51 -337 0 
 53 -337 0 
-51 -53  337 0 
 336 -337 0 
-334  338 0 
-336  338 0 
 334  336 -338 0 
 334 -339 0 
 336 -339 0 
-334 -336  339 0 
 338 -339 0 
-335  340 0 
-337  340 0 
 335  337 -340 0 
 335 -341 0 
 337 -341 0 
-335 -337  341 0 
 340 -341 0 
-340  342 0 
-339  342 0 
 340  339 -342 0 
 340 -343 0 
 339 -343 0 
-340 -339  343 0 
 342 -343 0 
-61  344 0 
-63  344 0 
 61  63 -344 0 
 61 -345 0 
 63 -345 0 
-61 -63  345 0 
 344 -345 0 
-65  346 0 
-67  346 0 
 65  67 -346 0 
 65 -347 0 
 67 -347 0 
-65 -67  347 0 
 346 -347 0 
-344  348 0 
-346  348 0 
 344  346 -348 0 
 344 -349 0 
 346 -349 0 
-344 -346  349 0 
 348 -349 0 
-345  350 0 
-347  350 0 
 345  347 -350 0 
 345 -351 0 
 347 -351 0 
-345 -347  351 0 
 350 -351 0 
-350  352 0 
-349  352 0 
 350  349 -352 0 
 350 -353 0 
 349 -353 0 
-350 -349  353 0 
 352 -353 0 
-338  354 0 
-348  354 0 
 338  348 -354 0 
 338 -355 0 
 348 -355 0 
-338 -348  355 0 
 354 -355 0 
-343  356 0 
-353  356 0 
 343  353 -356 0 
 343 -357 0 
 353 -357 0 
-343 -353  357 0 
 356 -357 0 
-356  358 0 
-355  358 0 
 356  355 -358 0 
 356 -359 0 
 355 -359 0 
-356 -355  359 0 
 358 -359 0 
-342  360 0 
-352  360 0 
 342  352 -360 0 
 342 -361 0 
 352 -361 0 
-342 -352  361 0 
 360 -361 0 
-341  362 0 
-351  362 0 
 341  351 -362 0 
 341 -363 0 
 351 -363 0 
-341 -351  363 0 
 362 -363 0 
-362  364 0 
-361  364 0 
 362  361 -364 0 
 362 -365 0 
 361 -365 0 
-362 -361  365 0 
 364 -365 0 
-360  366 0 
-358  366 0 
 360  358 -366 0 
 360 -367 0 
 358 -367 0 
-360 -358  367 0 
 366 -367 0 
-364  368 0 
-359  368 0 
 364  359 -368 0 
 364 -369 0 
 359 -369 0 
-364 -359  369 0 
 368 -369 0 
-365  370 0 
-357  370 0 
 365  357 -370 0 
 365 -371 0 
 357 -371 0 
-365 -357  371 0 
 370 -371 0 
-316  372 0 
-354  372 0 
 316  354 -372 0 
 316 -373 0 
 354 -373 0 
-316 -354  373 0 
 372 -373 0 
-331  374 0 
-369  374 0 
 331  369 -374 0 
 331 -375 0 
 369 -375 0 
-331 -369  375 0 
 374 -375 0 
-374  376 0 
-373  376 0 
 374  373 -376 0 
 374 -377 0 
 373 -377 0 
-374 -373  377 0 
 376 -377 0 
-329  378 0 
-367  378 0 
 329  367 -378 0 
 329 -379 0 
 367 -379 0 
-329 -367  379 0 
 378 -379 0 
-333  380 0 
-371  380 0 
 333  371 -380 0 
-380  381 0 
-379  381 0 
 380  379 -381 0 
 380 -382 0 
 379 -382 0 
-380 -379  382 0 
 381 -382 0 
-378  383 0 
-376  383 0 
 378  376 -383 0 
 378 -384 0 
 376 -384 0 
-378 -376  384 0 
 383 -384 0 
-381  385 0 
-377  385 0 
 381  377 -385 0 
 381 -386 0 
 377 -386 0 
-381 -377  386 0 
 385 -386 0 
-382  387 0 
-375  387 0 
 382  375 -387 0 
 382 -388 0 
 375 -388 0 
-382 -375  388 0 
 387 -388 0 
-328  389 0 
-366  389 0 
 328  366 -389 0 
 328 -390 0 
 366 -390 0 
-328 -366  390 0 
 389 -390 0 
-332  391 0 
-370  391 0 
 332  370 -391 0 
 332 -392 0 
 370 -392 0 
-332 -370  392 0 
 391 -392 0 
-391  393 0 
-390  393 0 
 391  390 -393 0 
 391 -394 0 
 390 -394 0 
-391 -390  394 0 
 393 -394 0 
-330  395 0 
-368  395 0 
 330  368 -395 0 
 330 -396 0 
 368 -396 0 
-330 -368  396 0 
 395 -396 0 
-325  397 0 
-363  397 0 
 325  363 -397 0 
-397  398 0 
-396  398 0 
 397  396 -398 0 
 397 -399 0 
 396 -399 0 
-397 -396  399 0 
 398 -399 0 
-395  400 0 
-393  400 0 
 395  393 -400 0 
 395 -401 0 
 393 -401 0 
-395 -393  401 0 
 400 -401 0 
-398  402 0 
-394  402 0 
 398  394 -402 0 
 398 -403 0 
 394 -403 0 
-398 -394  403 0 
 402 -403 0 
-399  404 0 
-392  404 0 
 399  392 -404 0 
-389  405 0 
-383  405 0 
 389  383 -405 0 
 389 -406 0 
 383 -406 0 
-389 -383  406 0 
 405 -406 0 
-400  407 0 
-384  407 0 
 400  384 -407 0 
 400 -408 0 
 384 -408 0 
-400 -384  408 0 
 407 -408 0 
-401  409 0 
-385  409 0 
 401  385 -409 0 
 401 -410 0 
 385 -410 0 
-401 -385  410 0 
 409 -410 0 
-402  411 0 
-386  411 0 
 402  386 -411 0 
 402 -412 0 
 386 -412 0 
-402 -386  412 0 
 411 -412 0 
-403  413 0 
-387  413 0 
 403  387 -413 0 
 403 -414 0 
 387 -414 0 
-403 -387  414 0 
 413 -414 0 
-404  415 0 
-388  415 0 
 404  388 -415 0 
-137  416 0 
-139  416 0 
 137  139 -416 0 
 137 -417 0 
 139 -417 0 
-137 -139  417 0 
 416 -417 0 
-141  418 0 
-143  418 0 
 141  143 -418 0 
 141 -419 0 
 143 -419 0 
-141 -143  419 0 
 418 -419 0 
-416  420 0 
-418  420 0 
 416  418 -420 0 
 416 -421 0 
 418 -421 0 
-416 -418  421 0 
 420 -421 0 
-417  422 0 
-419  422 0 
 417  419 -422 0 
 417 -423 0 
 419 -423 0 
-417 -419  423 0 
 422 -423 0 
-422  424 0 
-421  424 0 
 422  421 -424 0 
 422 -425 0 
 421 -425 0 
-422 -421  425 0 
 424 -425 0 
-151  426 0 
-153  426 0 
 151  153 -426 0 
 151 -427 0 
 153 -427 0 
-151 -153  427 0 
 426 -427 0 
-155  428 0 
-157  428 0 
 155  157 -428 0 
 155 -429 0 
 157 -429 0 
-155 -157  429 0 
 428 -429 0 
-426  430 0 
-428  430 0 
 426  428 -430 0 
 426 -431 0 
 428 -431 0 
-426 -428  431 0 
 430 -431 0 
-427  432 0 
-429  432 0 
 427  429 -432 0 
 427 -433 0 
 429 -433 0 
-427 -429  433 0 
 432 -433 0 
-432  434 0 
-431  434 0 
 432  431 -434 0 
 432 -435 0 
 431 -435 0 
-432 -431  435 0 
 434 -435 0 
-420  436 0 
-430  436 0 
 420  430 -436 0 
 420 -437 0 
 430 -437 0 
-420 -430  437 0 
 436 -437 0 
-425  438 0 
-435  438 0 
 425  435 -438 0 
 425 -439 0 
 435 -439 0 
-425 -435  439 0 
 438 -439 0 
-438  440 0 
-437  440 0 
 438  437 -440 0 
 438 -441 0 
 437 -441 0 
-438 -437  441 0 
 440 -441 0 
-424  442 0 
-434  442 0 
 424  434 -442 0 
 424 -443 0 
 434 -443 0 
-424 -434  443 0 
 442 -443 0 
-423  444 0 
-433  444 0 
 423  433 -444 0 
 423 -445 0 
 433 -445 0 
-423 -433  445 0 
 444 -445 0 
-444  446 0 
-443  446 0 
 444  443 -446 0 
 444 -447 0 
 443 -447 0 
-444 -443  447 0 
 446 -447 0 
-442  448 0 
-440  448 0 
 442  440 -448 0 
 442 -449 0 
 440 -449 0 
-442 -440  449 0 
 448 -449 0 
-446  450 0 
-441  450 0 
 446  441 -450 0 
 446 -451 0 
 441 -451 0 
-446 -441  451 0 
 450 -451 0 
-447  452 0 
-439  452 0 
 447  439 -452 0 
 447 -453 0 
 439 -453 0 
-447 -439  453 0 
 452 -453 0 
-183  454 0 
-185  454 0 
 183  185 -454 0 
 183 -455 0 
 185 -455 0 
-183 -185  455 0 
 454 -455 0 
-187  456 0 
-189  456 0 
 187  189 -456 0 
 187 -457 0 
 189 -457 0 
-187 -189  457 0 
 456 -457 0 
-454  458 0 
-456  458 0 
 454  456 -458 0 
 454 -459 0 
 456 -459 0 
-454 -456  459 0 
 458 -459 0 
-455  460 0 
-457  460 0 
 455  457 -460 0 
 455 -461 0 
 457 -461 0 
-455 -457  461 0 
 460 -461 0 
-460  462 0 
-459  462 0 
 460  459 -462 0 
 460 -463 0 
 459 -463 0 
-460 -459  463 0 
 462 -463 0 
-197  464 0 
-199  464 0 
 197  199 -464 0 
 197 -465 0 
 199 -465 0 
-197 -199  465 0 
 464 -465 0 
-201  466 0 
-203  466 0 
 201  203 -466 0 
 201 -467 0 
 203 -467 0 
-201 -203  467 0 
 466 -467 0 
-464  468 0 
-466  468 0 
 464  466 -468 0 
 464 -469 0 
 466 -469 0 
-464 -466  469 0 
 468 -469 0 
-465  470 0 
-467  470 0 
 465  467 -470 0 
 465 -471 0 
 467 -471 0 
-465 -467  471 0 
 470 -471 0 
-470  472 0 
-469  472 0 
 470  469 -472 0 
 470 -473 0 
 469 -473 0 
-470 -469  473 0 
 472 -473 0 
-458  474 0 
-468  474 0 
 458  468 -474 0 
 458 -475 0 
 468 -475 0 
-458 -468  475 0 
 474 -475 0 
-463  476 0 
-473  476 0 
 463  473 -476 0 
 463 -477 0 
 473 -477 0 
-463 -473  477 0 
 476 -477 0 
-476  478 0 
-475  478 0 
 476  475 -478 0 
 476 -479 0 
 475 -479 0 
-476 -475  479 0 
 478 -479 0 
-462  480 0 
-472  480 0 
 462  472 -480 0 
 462 -481 0 
 472 -481 0 
-462 -472  481 0 
 480 -481 0 
-461  482 0 
-471  482 0 
 461  471 -482 0 
 461 -483 0 
 471 -483 0 
-461 -471  483 0 
 482 -483 0 
-482  484 0 
-481  484 0 
 482  481 -484 0 
 482 -485 0 
 481 -485 0 
-482 -481  485 0 
 484 -485 0 
-480  486 0 
-478  486 0 
 480  478 -486 0 
 480 -487 0 
 478 -487 0 
-480 -478  487 0 
 486 -487 0 
-484  488 0 
-479  488 0 
 484  479 -488 0 
 484 -489 0 
 479 -489 0 
-484 -479  489 0 
 488 -489 0 
-485  490 0 
-477  490 0 
 485  477 -490 0 
 485 -491 0 
 477 -491 0 
-485 -477  491 0 
 490 -491 0 
-436  492 0 
-474  492 0 
 436  474 -492 0 
 436 -493 0 
 474 -493 0 
-436 -474  493 0 
 492 -493 0 
-451  494 0 
-489  494 0 
 451  489 -494 0 
 451 -495 0 
 489 -495 0 
-451 -489  495 0 
 494 -495 0 
-494  496 0 
-493  496 0 
 494  493 -496 0 
 494 -497 0 
 493 -497 0 
-494 -493  497 0 
 496 -497 0 
-449  498 0 
-487  498 0 
 449  487 -498 0 
 449 -499 0 
 487 -499 0 
-449 -487  499 0 
 498 -499 0 
-453  500 0 
-491  500 0 
 453  491 -500 0 
-500  501 0 
-499  501 0 
 500  499 -501 0 
 500 -502 0 
 499 -502 0 
-500 -499  502 0 
 501 -502 0 
-498  503 0 
-496  503 0 
 498  496 -503 0 
 498 -504 0 
 496 -504 0 
-498 -496  504 0 
 503 -504 0 
-501  505 0 
-497  505 0 
 501  497 -505 0 
 501 -506 0 
 497 -506 0 
-501 -497  506 0 
 505 -506 0 
-502  507 0 
-495  507 0 
 502  495 -507 0 
 502 -508 0 
 495 -508 0 
-502 -495  508 0 
 507 -508 0 
-448  509 0 
-486  509 0 
 448  486 -509 0 
 448 -510 0 
 486 -510 0 
-448 -486  510 0 
 509 -510 0 
-452  511 0 
-490  511 0 
 452  490 -511 0 
 452 -512 0 
 490 -512 0 
-452 -490  512 0 
 511 -512 0 
-511  513 0 
-510  513 0 
 511  510 -513 0 
 511 -514 0 
 510 -514 0 
-511 -510  514 0 
 513 -514 0 
-450  515 0 
-488  515 0 
 450  488 -515 0 
 450 -516 0 
 488 -516 0 
-450 -488  516 0 
 515 -516 0 
-445  517 0 
-483  517 0 
 445  483 -517 0 
-517  518 0 
-516  518 0 
 517  516 -518 0 
 517 -519 0 
 516 -519 0 
-517 -516  519 0 
 518 -519 0 
-515  520 0 
-513  520 0 
 515  513 -520 0 
 515 -521 0 
 513 -521 0 
-515 -513  521 0 
 520 -521 0 
-518  522 0 
-514  522 0 
 518  514 -522 0 
 518 -523 0 
 514 -523 0 
-518 -514  523 0 
 522 -523 0 
-519  524 0 
-512  524 0 
 519  512 -524 0 
-509  525 0 
-503  525 0 
 509  503 -525 0 
 509 -526 0 
 503 -526 0 
-509 -503  526 0 
 525 -526 0 
-520  527 0 
-504  527 0 
 520  504 -527 0 
 520 -528 0 
 504 -528 0 
-520 -504  528 0 
 527 -528 0 
-521  529 0 
-505  529 0 
 521  505 -529 0 
 521 -530 0 
 505 -530 0 
-521 -505  530 0 
 529 -530 0 
-522  531 0 
-506  531 0 
 522  506 -531 0 
 522 -532 0 
 506 -532 0 
-522 -506  532 0 
 531 -532 0 
-523  533 0 
-507  533 0 
 523  507 -533 0 
 523 -534 0 
 507 -534 0 
-523 -507  534 0 
 533 -534 0 
-524  535 0 
-508  535 0 
 524  508 -535 0 
 372  492 0 
 372 -536 0 
 492 -536 0 
-372 -492  536 0 
 537 -536 0 
-412  538 0 
-532  538 0 
 412  532 -538 0 
 538  536 0 
 408  528 0 
 406  526 0 
 406 -539 0 
 526 -539 0 
-406 -526  539 0 
 537 -539 0 
-414  540 0 
-534  540 0 
 414  534 -540 0 
-540  541 0 
-539  541 0 
 540  539 -541 0 
-410  542 0 
-530  542 0 
 410  530 -542 0 
 542  541 0 
 405  525 0 
 405 -543 0 
 525 -543 0 
-405 -525  543 0 
 537 -543 0 
-413  544 0 
-533  544 0 
 413  533 -544 0 
-544  545 0 
-543  545 0 
 544  543 -545 0 
-409  546 0 
-529  546 0 
 409  529 -546 0 
 546  545 0 
 546 -547 0 
 545 -547 0 
-546 -545  547 0 
 537 -547 0 
 407  527 0 
 407 -548 0 
 527 -548 0 
-407 -527  548 0 
 537 -548 0 
-415  549 0 
-535  549 0 
 415  535 -549 0 
-549  550 0 
-548  550 0 
 549  548 -550 0 
-411  551 0 
-531  551 0 
 411  531 -551 0 
-551  552 0 
-550  552 0 
 551  550 -552 0 
 552  547 0 
